p cnf 290 1069
c p weight 22 -1 0
c p weight -22 1 0
c p weight 24 6.12323399573676603586882014729198302312846062338790031898128063403419218957424163818359375E-17 0
c p weight -24 1 0
c p weight 25 1 0
c p weight -25 1 0
c p weight 26 -1 0
c p weight -26 1 0
c p weight 28 -1 0
c p weight -28 1 0
c p weight 30 -1 0
c p weight -30 1 0
c p weight 32 6.12323399573676603586882014729198302312846062338790031898128063403419218957424163818359375E-17 0
c p weight -32 1 0
c p weight 33 1 0
c p weight -33 1 0
c p weight 34 -1 0
c p weight -34 1 0
c p weight 36 -1 0
c p weight -36 1 0
c p weight 38 -1 0
c p weight -38 1 0
c p weight 40 6.12323399573676603586882014729198302312846062338790031898128063403419218957424163818359375E-17 0
c p weight -40 1 0
c p weight 41 1 0
c p weight -41 1 0
c p weight 42 -1 0
c p weight -42 1 0
c p weight 44 -1 0
c p weight -44 1 0
c p weight 47 -1 0
c p weight -47 1 0
c p weight 49 -1 0
c p weight -49 1 0
c p weight 51 6.12323399573676603586882014729198302312846062338790031898128063403419218957424163818359375E-17 0
c p weight -51 1 0
c p weight 52 1 0
c p weight -52 1 0
c p weight 53 -1 0
c p weight -53 1 0
c p weight 55 -1 0
c p weight -55 1 0
c p weight 57 -1 0
c p weight -57 1 0
c p weight 59 6.12323399573676603586882014729198302312846062338790031898128063403419218957424163818359375E-17 0
c p weight -59 1 0
c p weight 60 1 0
c p weight -60 1 0
c p weight 61 -1 0
c p weight -61 1 0
c p weight 63 -1 0
c p weight -63 1 0
c p weight 65 -1 0
c p weight -65 1 0
c p weight 67 6.12323399573676603586882014729198302312846062338790031898128063403419218957424163818359375E-17 0
c p weight -67 1 0
c p weight 68 1 0
c p weight -68 1 0
c p weight 69 -1 0
c p weight -69 1 0
c p weight 71 -1 0
c p weight -71 1 0
c p weight 73 -1 0
c p weight -73 1 0
c p weight 75 6.12323399573676603586882014729198302312846062338790031898128063403419218957424163818359375E-17 0
c p weight -75 1 0
c p weight 76 1 0
c p weight -76 1 0
c p weight 77 -1 0
c p weight -77 1 0
c p weight 79 -1 0
c p weight -79 1 0
c p weight 82 -1 0
c p weight -82 1 0
c p weight 84 -1 0
c p weight -84 1 0
c p weight 86 6.12323399573676603586882014729198302312846062338790031898128063403419218957424163818359375E-17 0
c p weight -86 1 0
c p weight 87 1 0
c p weight -87 1 0
c p weight 88 -1 0
c p weight -88 1 0
c p weight 90 -1 0
c p weight -90 1 0
c p weight 92 -1 0
c p weight -92 1 0
c p weight 94 6.12323399573676603586882014729198302312846062338790031898128063403419218957424163818359375E-17 0
c p weight -94 1 0
c p weight 95 1 0
c p weight -95 1 0
c p weight 96 -1 0
c p weight -96 1 0
c p weight 98 -1 0
c p weight -98 1 0
c p weight 100 -1 0
c p weight -100 1 0
c p weight 102 6.12323399573676603586882014729198302312846062338790031898128063403419218957424163818359375E-17 0
c p weight -102 1 0
c p weight 103 1 0
c p weight -103 1 0
c p weight 104 -1 0
c p weight -104 1 0
c p weight 106 -1 0
c p weight -106 1 0
c p weight 109 -1 0
c p weight -109 1 0
c p weight 111 -1 0
c p weight -111 1 0
c p weight 113 6.12323399573676603586882014729198302312846062338790031898128063403419218957424163818359375E-17 0
c p weight -113 1 0
c p weight 114 1 0
c p weight -114 1 0
c p weight 115 -1 0
c p weight -115 1 0
c p weight 117 -1 0
c p weight -117 1 0
c p weight 119 -1 0
c p weight -119 1 0
c p weight 121 6.12323399573676603586882014729198302312846062338790031898128063403419218957424163818359375E-17 0
c p weight -121 1 0
c p weight 122 1 0
c p weight -122 1 0
c p weight 123 -1 0
c p weight -123 1 0
c p weight 125 -1 0
c p weight -125 1 0
c p weight 127 -1 0
c p weight -127 1 0
c p weight 129 6.12323399573676603586882014729198302312846062338790031898128063403419218957424163818359375E-17 0
c p weight -129 1 0
c p weight 130 1 0
c p weight -130 1 0
c p weight 131 -1 0
c p weight -131 1 0
c p weight 133 -1 0
c p weight -133 1 0
c p weight 135 -1 0
c p weight -135 1 0
c p weight 137 6.12323399573676603586882014729198302312846062338790031898128063403419218957424163818359375E-17 0
c p weight -137 1 0
c p weight 138 1 0
c p weight -138 1 0
c p weight 139 -1 0
c p weight -139 1 0
c p weight 141 -1 0
c p weight -141 1 0
c p weight 144 -1 0
c p weight -144 1 0
c p weight 146 -1 0
c p weight -146 1 0
c p weight 148 6.12323399573676603586882014729198302312846062338790031898128063403419218957424163818359375E-17 0
c p weight -148 1 0
c p weight 149 1 0
c p weight -149 1 0
c p weight 150 -1 0
c p weight -150 1 0
c p weight 152 -1 0
c p weight -152 1 0
c p weight 154 -1 0
c p weight -154 1 0
c p weight 156 6.12323399573676603586882014729198302312846062338790031898128063403419218957424163818359375E-17 0
c p weight -156 1 0
c p weight 157 1 0
c p weight -157 1 0
c p weight 158 -1 0
c p weight -158 1 0
c p weight 160 -1 0
c p weight -160 1 0
c p weight 163 -1 0
c p weight -163 1 0
c p weight 165 -1 0
c p weight -165 1 0
c p weight 167 6.12323399573676603586882014729198302312846062338790031898128063403419218957424163818359375E-17 0
c p weight -167 1 0
c p weight 168 1 0
c p weight -168 1 0
c p weight 169 -1 0
c p weight -169 1 0
c p weight 171 -1 0
c p weight -171 1 0
c p weight 173 -1 0
c p weight -173 1 0
c p weight 175 6.12323399573676603586882014729198302312846062338790031898128063403419218957424163818359375E-17 0
c p weight -175 1 0
c p weight 176 1 0
c p weight -176 1 0
c p weight 177 -1 0
c p weight -177 1 0
c p weight 179 -1 0
c p weight -179 1 0
c p weight 181 -1 0
c p weight -181 1 0
c p weight 183 6.12323399573676603586882014729198302312846062338790031898128063403419218957424163818359375E-17 0
c p weight -183 1 0
c p weight 184 1 0
c p weight -184 1 0
c p weight 185 -1 0
c p weight -185 1 0
c p weight 187 -1 0
c p weight -187 1 0
c p weight 190 -1 0
c p weight -190 1 0
c p weight 192 -1 0
c p weight -192 1 0
c p weight 194 6.12323399573676603586882014729198302312846062338790031898128063403419218957424163818359375E-17 0
c p weight -194 1 0
c p weight 195 1 0
c p weight -195 1 0
c p weight 196 -1 0
c p weight -196 1 0
c p weight 198 -1 0
c p weight -198 1 0
c p weight 200 -1 0
c p weight -200 1 0
c p weight 202 6.12323399573676603586882014729198302312846062338790031898128063403419218957424163818359375E-17 0
c p weight -202 1 0
c p weight 203 1 0
c p weight -203 1 0
c p weight 204 -1 0
c p weight -204 1 0
c p weight 206 -1 0
c p weight -206 1 0
c p weight 208 -1 0
c p weight -208 1 0
c p weight 210 6.12323399573676603586882014729198302312846062338790031898128063403419218957424163818359375E-17 0
c p weight -210 1 0
c p weight 211 1 0
c p weight -211 1 0
c p weight 212 -1 0
c p weight -212 1 0
c p weight 214 -1 0
c p weight -214 1 0
c p weight 217 -1 0
c p weight -217 1 0
c p weight 219 -1 0
c p weight -219 1 0
c p weight 221 6.12323399573676603586882014729198302312846062338790031898128063403419218957424163818359375E-17 0
c p weight -221 1 0
c p weight 222 1 0
c p weight -222 1 0
c p weight 223 -1 0
c p weight -223 1 0
c p weight 225 -1 0
c p weight -225 1 0
c p weight 227 -1 0
c p weight -227 1 0
c p weight 229 6.12323399573676603586882014729198302312846062338790031898128063403419218957424163818359375E-17 0
c p weight -229 1 0
c p weight 230 1 0
c p weight -230 1 0
c p weight 231 -1 0
c p weight -231 1 0
c p weight 233 -1 0
c p weight -233 1 0
c p weight 236 -1 0
c p weight -236 1 0
c p weight 238 -1 0
c p weight -238 1 0
c p weight 240 6.12323399573676603586882014729198302312846062338790031898128063403419218957424163818359375E-17 0
c p weight -240 1 0
c p weight 241 1 0
c p weight -241 1 0
c p weight 242 -1 0
c p weight -242 1 0
c p weight 244 -1 0
c p weight -244 1 0
c p weight 246 -1 0
c p weight -246 1 0
c p weight 248 6.12323399573676603586882014729198302312846062338790031898128063403419218957424163818359375E-17 0
c p weight -248 1 0
c p weight 249 1 0
c p weight -249 1 0
c p weight 250 -1 0
c p weight -250 1 0
c p weight 252 -1 0
c p weight -252 1 0
c p weight 254 -1 0
c p weight -254 1 0
c p weight 256 6.12323399573676603586882014729198302312846062338790031898128063403419218957424163818359375E-17 0
c p weight -256 1 0
c p weight 257 1 0
c p weight -257 1 0
c p weight 258 -1 0
c p weight -258 1 0
c p weight 260 -1 0
c p weight -260 1 0
c p weight 263 -1 0
c p weight -263 1 0
c p weight 265 -1 0
c p weight -265 1 0
c p weight 267 6.12323399573676603586882014729198302312846062338790031898128063403419218957424163818359375E-17 0
c p weight -267 1 0
c p weight 268 1 0
c p weight -268 1 0
c p weight 269 -1 0
c p weight -269 1 0
c p weight 271 -1 0
c p weight -271 1 0
c p weight 273 -1 0
c p weight -273 1 0
c p weight 275 6.12323399573676603586882014729198302312846062338790031898128063403419218957424163818359375E-17 0
c p weight -275 1 0
c p weight 276 1 0
c p weight -276 1 0
c p weight 277 -1 0
c p weight -277 1 0
c p weight 279 -1 0
c p weight -279 1 0
c p weight 282 -1 0
c p weight -282 1 0
c p weight 284 -1 0
c p weight -284 1 0
c p weight 286 6.12323399573676603586882014729198302312846062338790031898128063403419218957424163818359375E-17 0
c p weight -286 1 0
c p weight 287 1 0
c p weight -287 1 0
c p weight 288 -1 0
c p weight -288 1 0
c p weight 290 -1 0
c p weight -290 1 0
-19 0
-17 0
-15 0
-13 0
-11 0
-9 0
-7 0
-5 0
-3 0
-1 0
21 1 -2 0
21 -1 2 0
-21 1 2 0
-21 -1 -2 0
-22 1 0
-22 2 0
22 -1 -2 0
23 -1 21 0
-23 1 21 0
-24 21 0
23 -24 -1 0
-23 -24 1 0
23 24 1 -21 0
-23 24 -1 -21 0
-25 21 0
23 -25 1 0
-23 -25 -1 0
23 25 -1 -21 0
-23 25 1 -21 0
-26 23 0
-26 21 0
-26 -1 0
26 -23 1 -21 0
27 23 -21 0
27 -23 21 0
-27 23 21 0
-27 -23 -21 0
-28 23 0
-28 21 0
28 -23 -21 0
29 3 -4 0
29 -3 4 0
-29 3 4 0
-29 -3 -4 0
-30 3 0
-30 4 0
30 -3 -4 0
31 -3 29 0
-31 3 29 0
-32 29 0
31 -32 -3 0
-31 -32 3 0
31 32 3 -29 0
-31 32 -3 -29 0
-33 29 0
31 -33 3 0
-31 -33 -3 0
31 33 -3 -29 0
-31 33 3 -29 0
-34 31 0
-34 29 0
-34 -3 0
34 -31 3 -29 0
35 31 -29 0
35 -31 29 0
-35 31 29 0
-35 -31 -29 0
-36 31 0
-36 29 0
36 -31 -29 0
37 31 -35 0
37 -31 35 0
-37 31 35 0
-37 -31 -35 0
-38 31 0
-38 35 0
38 -31 -35 0
39 -31 37 0
-39 31 37 0
-40 37 0
39 -40 -31 0
-39 -40 31 0
39 40 31 -37 0
-39 40 -31 -37 0
-41 37 0
39 -41 31 0
-39 -41 -31 0
39 41 -31 -37 0
-39 41 31 -37 0
-42 39 0
-42 37 0
-42 -31 0
42 -39 31 -37 0
43 39 -37 0
43 -39 37 0
-43 39 37 0
-43 -39 -37 0
-44 39 0
-44 37 0
44 -39 -37 0
45 23 -39 0
45 -23 39 0
-45 23 39 0
-45 -23 -39 0
46 27 -43 0
46 -27 43 0
-46 27 43 0
-46 -27 -43 0
-47 23 0
-47 43 0
-47 39 -27 0
-47 -39 27 0
47 -23 39 27 -43 0
47 -23 -39 -27 -43 0
48 45 -43 0
48 -45 43 0
-48 45 43 0
-48 -45 -43 0
-49 45 0
-49 43 0
49 -45 -43 0
50 -45 48 0
-50 45 48 0
-51 48 0
50 -51 -45 0
-50 -51 45 0
50 51 45 -48 0
-50 51 -45 -48 0
-52 48 0
50 -52 45 0
-50 -52 -45 0
50 52 -45 -48 0
-50 52 45 -48 0
-53 50 0
-53 48 0
-53 -45 0
53 -50 45 -48 0
54 50 -48 0
54 -50 48 0
-54 50 48 0
-54 -50 -48 0
-55 50 0
-55 48 0
55 -50 -48 0
56 5 -6 0
56 -5 6 0
-56 5 6 0
-56 -5 -6 0
-57 5 0
-57 6 0
57 -5 -6 0
58 -5 56 0
-58 5 56 0
-59 56 0
58 -59 -5 0
-58 -59 5 0
58 59 5 -56 0
-58 59 -5 -56 0
-60 56 0
58 -60 5 0
-58 -60 -5 0
58 60 -5 -56 0
-58 60 5 -56 0
-61 58 0
-61 56 0
-61 -5 0
61 -58 5 -56 0
62 58 -56 0
62 -58 56 0
-62 58 56 0
-62 -58 -56 0
-63 58 0
-63 56 0
63 -58 -56 0
64 7 -8 0
64 -7 8 0
-64 7 8 0
-64 -7 -8 0
-65 7 0
-65 8 0
65 -7 -8 0
66 -7 64 0
-66 7 64 0
-67 64 0
66 -67 -7 0
-66 -67 7 0
66 67 7 -64 0
-66 67 -7 -64 0
-68 64 0
66 -68 7 0
-66 -68 -7 0
66 68 -7 -64 0
-66 68 7 -64 0
-69 66 0
-69 64 0
-69 -7 0
69 -66 7 -64 0
70 66 -64 0
70 -66 64 0
-70 66 64 0
-70 -66 -64 0
-71 66 0
-71 64 0
71 -66 -64 0
72 66 -70 0
72 -66 70 0
-72 66 70 0
-72 -66 -70 0
-73 66 0
-73 70 0
73 -66 -70 0
74 -66 72 0
-74 66 72 0
-75 72 0
74 -75 -66 0
-74 -75 66 0
74 75 66 -72 0
-74 75 -66 -72 0
-76 72 0
74 -76 66 0
-74 -76 -66 0
74 76 -66 -72 0
-74 76 66 -72 0
-77 74 0
-77 72 0
-77 -66 0
77 -74 66 -72 0
78 74 -72 0
78 -74 72 0
-78 74 72 0
-78 -74 -72 0
-79 74 0
-79 72 0
79 -74 -72 0
80 58 -74 0
80 -58 74 0
-80 58 74 0
-80 -58 -74 0
81 62 -78 0
81 -62 78 0
-81 62 78 0
-81 -62 -78 0
-82 58 0
-82 78 0
-82 74 -62 0
-82 -74 62 0
82 -58 74 62 -78 0
82 -58 -74 -62 -78 0
83 80 -78 0
83 -80 78 0
-83 80 78 0
-83 -80 -78 0
-84 80 0
-84 78 0
84 -80 -78 0
85 -80 83 0
-85 80 83 0
-86 83 0
85 -86 -80 0
-85 -86 80 0
85 86 80 -83 0
-85 86 -80 -83 0
-87 83 0
85 -87 80 0
-85 -87 -80 0
85 87 -80 -83 0
-85 87 80 -83 0
-88 85 0
-88 83 0
-88 -80 0
88 -85 80 -83 0
89 85 -83 0
89 -85 83 0
-89 85 83 0
-89 -85 -83 0
-90 85 0
-90 83 0
90 -85 -83 0
91 9 -10 0
91 -9 10 0
-91 9 10 0
-91 -9 -10 0
-92 9 0
-92 10 0
92 -9 -10 0
93 -9 91 0
-93 9 91 0
-94 91 0
93 -94 -9 0
-93 -94 9 0
93 94 9 -91 0
-93 94 -9 -91 0
-95 91 0
93 -95 9 0
-93 -95 -9 0
93 95 -9 -91 0
-93 95 9 -91 0
-96 93 0
-96 91 0
-96 -9 0
96 -93 9 -91 0
97 93 -91 0
97 -93 91 0
-97 93 91 0
-97 -93 -91 0
-98 93 0
-98 91 0
98 -93 -91 0
99 93 -97 0
99 -93 97 0
-99 93 97 0
-99 -93 -97 0
-100 93 0
-100 97 0
100 -93 -97 0
101 -93 99 0
-101 93 99 0
-102 99 0
101 -102 -93 0
-101 -102 93 0
101 102 93 -99 0
-101 102 -93 -99 0
-103 99 0
101 -103 93 0
-101 -103 -93 0
101 103 -93 -99 0
-101 103 93 -99 0
-104 101 0
-104 99 0
-104 -93 0
104 -101 93 -99 0
105 101 -99 0
105 -101 99 0
-105 101 99 0
-105 -101 -99 0
-106 101 0
-106 99 0
106 -101 -99 0
107 85 -101 0
107 -85 101 0
-107 85 101 0
-107 -85 -101 0
108 89 -105 0
108 -89 105 0
-108 89 105 0
-108 -89 -105 0
-109 85 0
-109 105 0
-109 101 -89 0
-109 -101 89 0
109 -85 101 89 -105 0
109 -85 -101 -89 -105 0
110 107 -105 0
110 -107 105 0
-110 107 105 0
-110 -107 -105 0
-111 107 0
-111 105 0
111 -107 -105 0
112 -107 110 0
-112 107 110 0
-113 110 0
112 -113 -107 0
-112 -113 107 0
112 113 107 -110 0
-112 113 -107 -110 0
-114 110 0
112 -114 107 0
-112 -114 -107 0
112 114 -107 -110 0
-112 114 107 -110 0
-115 112 0
-115 110 0
-115 -107 0
115 -112 107 -110 0
116 112 -110 0
116 -112 110 0
-116 112 110 0
-116 -112 -110 0
-117 112 0
-117 110 0
117 -112 -110 0
118 11 -12 0
118 -11 12 0
-118 11 12 0
-118 -11 -12 0
-119 11 0
-119 12 0
119 -11 -12 0
120 -11 118 0
-120 11 118 0
-121 118 0
120 -121 -11 0
-120 -121 11 0
120 121 11 -118 0
-120 121 -11 -118 0
-122 118 0
120 -122 11 0
-120 -122 -11 0
120 122 -11 -118 0
-120 122 11 -118 0
-123 120 0
-123 118 0
-123 -11 0
123 -120 11 -118 0
124 120 -118 0
124 -120 118 0
-124 120 118 0
-124 -120 -118 0
-125 120 0
-125 118 0
125 -120 -118 0
126 13 -14 0
126 -13 14 0
-126 13 14 0
-126 -13 -14 0
-127 13 0
-127 14 0
127 -13 -14 0
128 -13 126 0
-128 13 126 0
-129 126 0
128 -129 -13 0
-128 -129 13 0
128 129 13 -126 0
-128 129 -13 -126 0
-130 126 0
128 -130 13 0
-128 -130 -13 0
128 130 -13 -126 0
-128 130 13 -126 0
-131 128 0
-131 126 0
-131 -13 0
131 -128 13 -126 0
132 128 -126 0
132 -128 126 0
-132 128 126 0
-132 -128 -126 0
-133 128 0
-133 126 0
133 -128 -126 0
134 128 -132 0
134 -128 132 0
-134 128 132 0
-134 -128 -132 0
-135 128 0
-135 132 0
135 -128 -132 0
136 -128 134 0
-136 128 134 0
-137 134 0
136 -137 -128 0
-136 -137 128 0
136 137 128 -134 0
-136 137 -128 -134 0
-138 134 0
136 -138 128 0
-136 -138 -128 0
136 138 -128 -134 0
-136 138 128 -134 0
-139 136 0
-139 134 0
-139 -128 0
139 -136 128 -134 0
140 136 -134 0
140 -136 134 0
-140 136 134 0
-140 -136 -134 0
-141 136 0
-141 134 0
141 -136 -134 0
142 112 -136 0
142 -112 136 0
-142 112 136 0
-142 -112 -136 0
143 116 -140 0
143 -116 140 0
-143 116 140 0
-143 -116 -140 0
-144 112 0
-144 140 0
-144 136 -116 0
-144 -136 116 0
144 -112 136 116 -140 0
144 -112 -136 -116 -140 0
145 142 -140 0
145 -142 140 0
-145 142 140 0
-145 -142 -140 0
-146 142 0
-146 140 0
146 -142 -140 0
147 -142 145 0
-147 142 145 0
-148 145 0
147 -148 -142 0
-147 -148 142 0
147 148 142 -145 0
-147 148 -142 -145 0
-149 145 0
147 -149 142 0
-147 -149 -142 0
147 149 -142 -145 0
-147 149 142 -145 0
-150 147 0
-150 145 0
-150 -142 0
150 -147 142 -145 0
151 147 -145 0
151 -147 145 0
-151 147 145 0
-151 -147 -145 0
-152 147 0
-152 145 0
152 -147 -145 0
153 147 -151 0
153 -147 151 0
-153 147 151 0
-153 -147 -151 0
-154 147 0
-154 151 0
154 -147 -151 0
155 -147 153 0
-155 147 153 0
-156 153 0
155 -156 -147 0
-155 -156 147 0
155 156 147 -153 0
-155 156 -147 -153 0
-157 153 0
155 -157 147 0
-155 -157 -147 0
155 157 -147 -153 0
-155 157 147 -153 0
-158 155 0
-158 153 0
-158 -147 0
158 -155 147 -153 0
159 155 -153 0
159 -155 153 0
-159 155 153 0
-159 -155 -153 0
-160 155 0
-160 153 0
160 -155 -153 0
161 120 -155 0
161 -120 155 0
-161 120 155 0
-161 -120 -155 0
162 124 -159 0
162 -124 159 0
-162 124 159 0
-162 -124 -159 0
-163 120 0
-163 159 0
-163 155 -124 0
-163 -155 124 0
163 -120 155 124 -159 0
163 -120 -155 -124 -159 0
164 161 -159 0
164 -161 159 0
-164 161 159 0
-164 -161 -159 0
-165 161 0
-165 159 0
165 -161 -159 0
166 -161 164 0
-166 161 164 0
-167 164 0
166 -167 -161 0
-166 -167 161 0
166 167 161 -164 0
-166 167 -161 -164 0
-168 164 0
166 -168 161 0
-166 -168 -161 0
166 168 -161 -164 0
-166 168 161 -164 0
-169 166 0
-169 164 0
-169 -161 0
169 -166 161 -164 0
170 166 -164 0
170 -166 164 0
-170 166 164 0
-170 -166 -164 0
-171 166 0
-171 164 0
171 -166 -164 0
172 15 -16 0
172 -15 16 0
-172 15 16 0
-172 -15 -16 0
-173 15 0
-173 16 0
173 -15 -16 0
174 -15 172 0
-174 15 172 0
-175 172 0
174 -175 -15 0
-174 -175 15 0
174 175 15 -172 0
-174 175 -15 -172 0
-176 172 0
174 -176 15 0
-174 -176 -15 0
174 176 -15 -172 0
-174 176 15 -172 0
-177 174 0
-177 172 0
-177 -15 0
177 -174 15 -172 0
178 174 -172 0
178 -174 172 0
-178 174 172 0
-178 -174 -172 0
-179 174 0
-179 172 0
179 -174 -172 0
180 174 -178 0
180 -174 178 0
-180 174 178 0
-180 -174 -178 0
-181 174 0
-181 178 0
181 -174 -178 0
182 -174 180 0
-182 174 180 0
-183 180 0
182 -183 -174 0
-182 -183 174 0
182 183 174 -180 0
-182 183 -174 -180 0
-184 180 0
182 -184 174 0
-182 -184 -174 0
182 184 -174 -180 0
-182 184 174 -180 0
-185 182 0
-185 180 0
-185 -174 0
185 -182 174 -180 0
186 182 -180 0
186 -182 180 0
-186 182 180 0
-186 -182 -180 0
-187 182 0
-187 180 0
187 -182 -180 0
188 120 -182 0
188 -120 182 0
-188 120 182 0
-188 -120 -182 0
189 162 -186 0
189 -162 186 0
-189 162 186 0
-189 -162 -186 0
-190 120 0
-190 186 0
-190 182 -162 0
-190 -182 162 0
190 -120 182 162 -186 0
190 -120 -182 -162 -186 0
191 188 -186 0
191 -188 186 0
-191 188 186 0
-191 -188 -186 0
-192 188 0
-192 186 0
192 -188 -186 0
193 -188 191 0
-193 188 191 0
-194 191 0
193 -194 -188 0
-193 -194 188 0
193 194 188 -191 0
-193 194 -188 -191 0
-195 191 0
193 -195 188 0
-193 -195 -188 0
193 195 -188 -191 0
-193 195 188 -191 0
-196 193 0
-196 191 0
-196 -188 0
196 -193 188 -191 0
197 193 -191 0
197 -193 191 0
-197 193 191 0
-197 -193 -191 0
-198 193 0
-198 191 0
198 -193 -191 0
199 17 -18 0
199 -17 18 0
-199 17 18 0
-199 -17 -18 0
-200 17 0
-200 18 0
200 -17 -18 0
201 -17 199 0
-201 17 199 0
-202 199 0
201 -202 -17 0
-201 -202 17 0
201 202 17 -199 0
-201 202 -17 -199 0
-203 199 0
201 -203 17 0
-201 -203 -17 0
201 203 -17 -199 0
-201 203 17 -199 0
-204 201 0
-204 199 0
-204 -17 0
204 -201 17 -199 0
205 201 -199 0
205 -201 199 0
-205 201 199 0
-205 -201 -199 0
-206 201 0
-206 199 0
206 -201 -199 0
207 201 -205 0
207 -201 205 0
-207 201 205 0
-207 -201 -205 0
-208 201 0
-208 205 0
208 -201 -205 0
209 -201 207 0
-209 201 207 0
-210 207 0
209 -210 -201 0
-209 -210 201 0
209 210 201 -207 0
-209 210 -201 -207 0
-211 207 0
209 -211 201 0
-209 -211 -201 0
209 211 -201 -207 0
-209 211 201 -207 0
-212 209 0
-212 207 0
-212 -201 0
212 -209 201 -207 0
213 209 -207 0
213 -209 207 0
-213 209 207 0
-213 -209 -207 0
-214 209 0
-214 207 0
214 -209 -207 0
215 50 -209 0
215 -50 209 0
-215 50 209 0
-215 -50 -209 0
216 54 -213 0
216 -54 213 0
-216 54 213 0
-216 -54 -213 0
-217 50 0
-217 213 0
-217 209 -54 0
-217 -209 54 0
217 -50 209 54 -213 0
217 -50 -209 -54 -213 0
218 215 -213 0
218 -215 213 0
-218 215 213 0
-218 -215 -213 0
-219 215 0
-219 213 0
219 -215 -213 0
220 -215 218 0
-220 215 218 0
-221 218 0
220 -221 -215 0
-220 -221 215 0
220 221 215 -218 0
-220 221 -215 -218 0
-222 218 0
220 -222 215 0
-220 -222 -215 0
220 222 -215 -218 0
-220 222 215 -218 0
-223 220 0
-223 218 0
-223 -215 0
223 -220 215 -218 0
224 220 -218 0
224 -220 218 0
-224 220 218 0
-224 -220 -218 0
-225 220 0
-225 218 0
225 -220 -218 0
226 220 -224 0
226 -220 224 0
-226 220 224 0
-226 -220 -224 0
-227 220 0
-227 224 0
227 -220 -224 0
228 -220 226 0
-228 220 226 0
-229 226 0
228 -229 -220 0
-228 -229 220 0
228 229 220 -226 0
-228 229 -220 -226 0
-230 226 0
228 -230 220 0
-228 -230 -220 0
228 230 -220 -226 0
-228 230 220 -226 0
-231 228 0
-231 226 0
-231 -220 0
231 -228 220 -226 0
232 228 -226 0
232 -228 226 0
-232 228 226 0
-232 -228 -226 0
-233 228 0
-233 226 0
233 -228 -226 0
234 193 -228 0
234 -193 228 0
-234 193 228 0
-234 -193 -228 0
235 197 -232 0
235 -197 232 0
-235 197 232 0
-235 -197 -232 0
-236 193 0
-236 232 0
-236 228 -197 0
-236 -228 197 0
236 -193 228 197 -232 0
236 -193 -228 -197 -232 0
237 234 -232 0
237 -234 232 0
-237 234 232 0
-237 -234 -232 0
-238 234 0
-238 232 0
238 -234 -232 0
239 -234 237 0
-239 234 237 0
-240 237 0
239 -240 -234 0
-239 -240 234 0
239 240 234 -237 0
-239 240 -234 -237 0
-241 237 0
239 -241 234 0
-239 -241 -234 0
239 241 -234 -237 0
-239 241 234 -237 0
-242 239 0
-242 237 0
-242 -234 0
242 -239 234 -237 0
243 239 -237 0
243 -239 237 0
-243 239 237 0
-243 -239 -237 0
-244 239 0
-244 237 0
244 -239 -237 0
245 19 -20 0
245 -19 20 0
-245 19 20 0
-245 -19 -20 0
-246 19 0
-246 20 0
246 -19 -20 0
247 -19 245 0
-247 19 245 0
-248 245 0
247 -248 -19 0
-247 -248 19 0
247 248 19 -245 0
-247 248 -19 -245 0
-249 245 0
247 -249 19 0
-247 -249 -19 0
247 249 -19 -245 0
-247 249 19 -245 0
-250 247 0
-250 245 0
-250 -19 0
250 -247 19 -245 0
251 247 -245 0
251 -247 245 0
-251 247 245 0
-251 -247 -245 0
-252 247 0
-252 245 0
252 -247 -245 0
253 247 -251 0
253 -247 251 0
-253 247 251 0
-253 -247 -251 0
-254 247 0
-254 251 0
254 -247 -251 0
255 -247 253 0
-255 247 253 0
-256 253 0
255 -256 -247 0
-255 -256 247 0
255 256 247 -253 0
-255 256 -247 -253 0
-257 253 0
255 -257 247 0
-255 -257 -247 0
255 257 -247 -253 0
-255 257 247 -253 0
-258 255 0
-258 253 0
-258 -247 0
258 -255 247 -253 0
259 255 -253 0
259 -255 253 0
-259 255 253 0
-259 -255 -253 0
-260 255 0
-260 253 0
260 -255 -253 0
261 23 -255 0
261 -23 255 0
-261 23 255 0
-261 -23 -255 0
262 46 -259 0
262 -46 259 0
-262 46 259 0
-262 -46 -259 0
-263 23 0
-263 259 0
-263 255 -46 0
-263 -255 46 0
263 -23 255 46 -259 0
263 -23 -255 -46 -259 0
264 261 -259 0
264 -261 259 0
-264 261 259 0
-264 -261 -259 0
-265 261 0
-265 259 0
265 -261 -259 0
266 -261 264 0
-266 261 264 0
-267 264 0
266 -267 -261 0
-266 -267 261 0
266 267 261 -264 0
-266 267 -261 -264 0
-268 264 0
266 -268 261 0
-266 -268 -261 0
266 268 -261 -264 0
-266 268 261 -264 0
-269 266 0
-269 264 0
-269 -261 0
269 -266 261 -264 0
270 266 -264 0
270 -266 264 0
-270 266 264 0
-270 -266 -264 0
-271 266 0
-271 264 0
271 -266 -264 0
272 266 -270 0
272 -266 270 0
-272 266 270 0
-272 -266 -270 0
-273 266 0
-273 270 0
273 -266 -270 0
274 -266 272 0
-274 266 272 0
-275 272 0
274 -275 -266 0
-274 -275 266 0
274 275 266 -272 0
-274 275 -266 -272 0
-276 272 0
274 -276 266 0
-274 -276 -266 0
274 276 -266 -272 0
-274 276 266 -272 0
-277 274 0
-277 272 0
-277 -266 0
277 -274 266 -272 0
278 274 -272 0
278 -274 272 0
-278 274 272 0
-278 -274 -272 0
-279 274 0
-279 272 0
279 -274 -272 0
280 58 -274 0
280 -58 274 0
-280 58 274 0
-280 -58 -274 0
281 81 -278 0
281 -81 278 0
-281 81 278 0
-281 -81 -278 0
-282 58 0
-282 278 0
-282 274 -81 0
-282 -274 81 0
282 -58 274 81 -278 0
282 -58 -274 -81 -278 0
283 280 -278 0
283 -280 278 0
-283 280 278 0
-283 -280 -278 0
-284 280 0
-284 278 0
284 -280 -278 0
285 -280 283 0
-285 280 283 0
-286 283 0
285 -286 -280 0
-285 -286 280 0
285 286 280 -283 0
-285 286 -280 -283 0
-287 283 0
285 -287 280 0
-285 -287 -280 0
285 287 -280 -283 0
-285 287 280 -283 0
-288 285 0
-288 283 0
-288 -280 0
288 -285 280 -283 0
289 285 -283 0
289 -285 283 0
-289 285 283 0
-289 -285 -283 0
-290 285 0
-290 283 0
290 -285 -283 0
-23 0
-50 0
-216 0
-58 0
-281 0
-85 0
-108 0
-112 0
-143 0
-120 0
-189 0
-166 0
-170 0
-193 0
-235 0
-239 0
-243 0
-285 0
-289 0
